10242.53,59.38,73.66
9519.35,63.89,79.26
11037.65,55.1,68.36
9242.18,65.81,81.63
11255.47,54.04,67.03
11265.21,53.99,66.98
9322.06,65.24,80.94
10579.42,57.49,71.32
9706.56,62.66,77.73
9831.08,61.87,76.74
10095.98,60.24,74.73
9706.37,62.66,77.73
9739.15,62.45,77.47
10203.01,59.61,73.95
9962.01,61.05,75.74
10512.11,57.86,71.77
10788.75,56.38,69.93
10703.34,56.82,70.49
9707.08,62.66,77.73
11042.19,55.08,68.33
